instances/knapsack/discrete/knapsack_120_4.kp
10011
120
594

66 6.6 59
91 9.1 19
25 2.5 81
34 3.4 73
83 8.3 26
88 8.8 26
8 0.8 74
58 5.8 68
40 4.0 75
13 1.3 71
62 6.2 12
94 9.4 52
87 8.7 96
99 9.9 63
99 9.9 24
11 1.1 1
68 6.8 11
27 2.7 15
84 8.4 15
37 3.7 98
72 7.2 98
22 2.2 64
31 3.1 93
21 2.1 17
75 7.5 6
99 9.9 23
93 9.3 85
62 6.2 92
48 4.8 43
14 1.4 93
32 3.2 26
34 3.4 77
58 5.8 97
88 8.8 16
55 5.5 92
12 1.2 78
83 8.3 18
3 0.3 8
31 3.1 35
9 0.9 24
14 1.4 85
20 2.0 78
41 4.1 22
92 9.2 96
62 6.2 83
61 6.1 4
72 7.2 73
80 8.0 81
82 8.2 33
15 1.5 26
65 6.5 88
51 5.1 27
8 0.8 84
23 2.3 50
11 1.1 13
58 5.8 83
24 2.4 7
21 2.1 13
47 4.7 65
49 4.9 28
55 5.5 61
73 7.3 39
42 4.2 66
69 6.9 18
46 4.6 67
43 4.3 98
23 2.3 54
97 9.7 26
71 7.1 81
96 9.6 38
8 0.8 22
76 7.6 60
89 8.9 38
62 6.2 62
38 3.8 31
87 8.7 39
33 3.3 47
90 9.0 66
7 0.7 41
77 7.7 84
20 2.0 72
88 8.8 19
37 3.7 34
32 3.2 63
60 6.0 42
56 5.6 81
90 9.0 63
39 3.9 36
17 1.7 97
34 3.4 87
19 1.9 55
91 9.1 86
15 1.5 42
42 4.2 97
35 3.5 85
36 3.6 63
8 0.8 42
27 2.7 13
91 9.1 73
87 8.7 25
64 6.4 37
59 5.9 46
5 0.5 35
7 0.7 70
36 3.6 52
25 2.5 4
94 9.4 59
93 9.3 25
85 8.5 31
64 6.4 29
69 6.9 14
46 4.6 47
44 4.4 78
64 6.4 40
8 0.8 35
33 3.3 22
82 8.2 60
100 10.0 22
100 10.0 87
47 4.7 60

52428
571

[2.91 2.5 1.64 2.64 3.59 0.33 4.29 3.47 2.23 0.08 2.37 2.39 1.13 2.16 0.24 4.46 0.47 2.21 4.02 1.19 2.88 0.31 4.2 3.37 0.66 3.29 1.43 2.31 4.46 1.78 2.43 4.47 3.53 2.33 3.43 3.09 0.28 4.06 3.49 2.38 3.73 0.66 0.87 0.6 1.07 1.41 0.38 3.35 0.96 1.22 2.5 0.34 3.75 2.17 0.55 3.49 1.84 0.87 2.09 1.75 4.74 0.27 4.18 2.34 3.02 2.17 2.61 1.21 2.39 4.45 3.88 4.18 1.49 0.03 4.24 2.73 3.9 2.56 1.61 0.46 1.97 2.07 1.75 3.9 2.78 3.13 3.63 1.17 0.17 1.41 0.29 0.26 2.15 4.58 1.08 0.67 1.45 3.3 0.04 0.45 2.7 3.56 3.53 3.18 2.57 2.23 3.91 4.11 4.31 0.35 4.04 3.0 4.58 1.59 2.14 0.33 1.37 2.25 1.08 2.1]

[81 1 15 20 57 83 90 65 78 95 45 64 97 9 34 86 18 37 30 3 14 29 53 92 2 5 59 37 79 68 79 37 65 34 13 78 53 26 17 8 100 91 23 55 12 64 43 59 88 57 36 61 10 57 38 13 2 12 81 15 22 24 5 16 93 25 30 72 13 15 75 99 71 100 85 6 28 92 86 100 75 47 64 99 7 99 45 57 15 4 90 2 70 37 93 46 30 70 65 97 2 5 39 97 22 99 12 12 64 58 100 72 70 70 74 36 36 38 90 62]
