instances/knapsack/discrete/knapsack_120_4.lp
\ Model knapsack_120_4
\ LP format - for model browsing. Use MPS format to capture full model detail.
\ Signature: 0x89f048c0c90eaa9
Minimize
  - 2 x[0] - 67 x[1] - 52 x[2] - 96 x[3] - 18 x[4] - 13 x[5] - 34 x[6]
   - 36 x[7] - 51 x[8] - 31 x[9] - 31 x[10] - 87 x[11] - 7 x[12] - 58 x[13]
   - 67 x[14] - 72 x[15] - 62 x[16] - 94 x[17] - 11 x[18] - 42 x[19]
   - 62 x[20] - 79 x[21] - 88 x[22] - 40 x[23] - 73 x[24] - 23 x[25]
   - 84 x[26] - 32 x[27] - 70 x[28] - 33 x[29] - 65 x[30] - 60 x[31]
   - 96 x[32] - 87 x[33] - 56 x[34] - 25 x[35] - 33 x[36] - 35 x[37]
   - 19 x[38] - 40 x[39] - 16 x[40] - 14 x[41] - 18 x[42] - 31 x[43]
   - 95 x[44] - 23 x[45] - 9 x[46] - 9 x[47] - 77 x[48] - 94 x[49]
   - 19 x[50] - 79 x[51] - 11 x[52] - 41 x[53] - 92 x[54] - 90 x[55]
   - 51 x[56] - 48 x[57] - 80 x[58] - 23 x[59] - 96 x[60] - 86 x[61]
   - 10 x[62] - 46 x[63] - 43 x[64] - 21 x[65] - 65 x[66] - 18 x[67]
   - 25 x[68] - 70 x[69] - 5 x[70] - 71 x[71] - 65 x[72] - 42 x[73]
   - 35 x[74] - 66 x[75] - 2 x[76] - x[77] - 28 x[78] - 80 x[79] - 27 x[80]
   - 46 x[81] - 46 x[82] - 6 x[83] - 85 x[84] - 69 x[85] - 14 x[86]
   - 75 x[87] - 96 x[88] - 39 x[89] - 2 x[90] - 22 x[91] - 74 x[92]
   - 41 x[93] - 80 x[94] - 27 x[95] - 77 x[96] - 20 x[97] - 81 x[98]
   - 61 x[99] - 37 x[100] - 10 x[101] - 11 x[102] - 34 x[103] - 27 x[104]
   - 87 x[105] - 42 x[106] - 73 x[107] - 66 x[108] - 61 x[109] - 38 x[110]
   - 18 x[111] - 50 x[112] - 88 x[113] - 94 x[114] - 77 x[115] - 27 x[116]
   - 57 x[117] - 54 x[118] - 51 x[119]
Subject To
 primal_upper: 80 x[0] + 36 x[1] + 42 x[2] + 19 x[3] + 80 x[4] + 38 x[5]
   + 45 x[6] + 76 x[7] + 89 x[8] + 98 x[9] + 80 x[10] + 3 x[11] + 80 x[12]
   + 52 x[13] + 45 x[14] + 93 x[15] + 29 x[16] + 24 x[17] + 85 x[18]
   + 82 x[19] + 21 x[20] + 24 x[21] + 72 x[22] + 47 x[23] + 5 x[24]
   + 44 x[25] + 6 x[26] + 24 x[27] + 86 x[28] + 43 x[29] + 46 x[30]
   + 84 x[31] + 48 x[32] + 49 x[33] + 20 x[34] + 33 x[35] + 60 x[36]
   + 13 x[37] + 92 x[38] + 79 x[39] + 43 x[40] + 94 x[41] + 42 x[42]
   + 46 x[43] + 79 x[44] + 11 x[45] + 82 x[46] + 54 x[47] + 3 x[48]
   + 100 x[49] + 99 x[50] + 40 x[51] + 81 x[52] + 44 x[53] + 37 x[54]
   + 24 x[55] + 97 x[56] + 7 x[57] + 88 x[58] + 18 x[59] + 65 x[60]
   + 15 x[61] + 8 x[62] + 67 x[63] + 88 x[64] + 64 x[65] + 13 x[66]
   + 55 x[67] + 96 x[68] + 74 x[69] + 42 x[70] + 54 x[71] + 2 x[72]
   + 31 x[73] + 84 x[74] + 53 x[75] + 23 x[76] + 67 x[77] + 29 x[78]
   + 71 x[79] + 2 x[80] + 50 x[81] + 79 x[82] + 70 x[83] + 58 x[84]
   + 54 x[85] + 64 x[86] + 40 x[87] + 74 x[88] + 43 x[89] + 5 x[90]
   + 77 x[91] + 65 x[92] + 88 x[93] + 80 x[94] + 45 x[95] + 37 x[96]
   + 53 x[97] + 4 x[98] + 56 x[99] + 93 x[100] + 88 x[101] + 38 x[102]
   + 68 x[103] + 85 x[104] + 42 x[105] + 39 x[106] + 55 x[107] + 51 x[108]
   + 45 x[109] + 51 x[110] + 99 x[111] + 25 x[112] + 37 x[113] + 73 x[114]
   + 79 x[115] + 75 x[116] + 45 x[117] + 81 x[118] + 13 x[119] + 8 r[0]
   + 3.6 r[1] + 4.2 r[2] + 1.9 r[3] + 8 r[4] + 3.8 r[5] + 4.5 r[6]
   + 7.6 r[7] + 8.9 r[8] + 9.8 r[9] + 8 r[10] + 0.3 r[11] + 8 r[12]
   + 5.2 r[13] + 4.5 r[14] + 9.3 r[15] + 2.9 r[16] + 2.4 r[17] + 8.5 r[18]
   + 8.2 r[19] + 2.1 r[20] + 2.4 r[21] + 7.2 r[22] + 4.7 r[23] + 0.5 r[24]
   + 4.4 r[25] + 0.6 r[26] + 2.4 r[27] + 8.6 r[28] + 4.3 r[29] + 4.6 r[30]
   + 8.4 r[31] + 4.8 r[32] + 4.9 r[33] + 2 r[34] + 3.3 r[35] + 6 r[36]
   + 1.3 r[37] + 9.2 r[38] + 7.9 r[39] + 4.3 r[40] + 9.4 r[41] + 4.2 r[42]
   + 4.6 r[43] + 7.9 r[44] + 1.1 r[45] + 8.2 r[46] + 5.4 r[47] + 0.3 r[48]
   + 10 r[49] + 9.9 r[50] + 4 r[51] + 8.1 r[52] + 4.4 r[53] + 3.7 r[54]
   + 2.4 r[55] + 9.7 r[56] + 0.7 r[57] + 8.8 r[58] + 1.8 r[59] + 6.5 r[60]
   + 1.5 r[61] + 0.8 r[62] + 6.7 r[63] + 8.8 r[64] + 6.4 r[65] + 1.3 r[66]
   + 5.5 r[67] + 9.6 r[68] + 7.4 r[69] + 4.2 r[70] + 5.4 r[71] + 0.2 r[72]
   + 3.1 r[73] + 8.4 r[74] + 5.3 r[75] + 2.3 r[76] + 6.7 r[77] + 2.9 r[78]
   + 7.1 r[79] + 0.2 r[80] + 5 r[81] + 7.9 r[82] + 7 r[83] + 5.8 r[84]
   + 5.4 r[85] + 6.4 r[86] + 4 r[87] + 7.4 r[88] + 4.3 r[89] + 0.5 r[90]
   + 7.7 r[91] + 6.5 r[92] + 8.8 r[93] + 8 r[94] + 4.5 r[95] + 3.7 r[96]
   + 5.3 r[97] + 0.4 r[98] + 5.6 r[99] + 9.3 r[100] + 8.8 r[101]
   + 3.8 r[102] + 6.8 r[103] + 8.5 r[104] + 4.2 r[105] + 3.9 r[106]
   + 5.5 r[107] + 5.1 r[108] + 4.5 r[109] + 5.1 r[110] + 9.9 r[111]
   + 2.5 r[112] + 3.7 r[113] + 7.3 r[114] + 7.9 r[115] + 7.5 r[116]
   + 4.5 r[117] + 8.1 r[118] + 1.3 r[119] <= 608
 primal_lower: 0.1728564312104893 x[0] + 4.328523996697772 x[1]
   + 2.43111301789336 x[2] + 3.673993225931791 x[3]
   + 4.374208580986313 x[4] + 3.047489324149757 x[5]
   + 1.392783029806958 x[6] + 4.629292167204318 x[7]
   + 1.384061114921373 x[8] + 1.465488756357196 x[9]
   + 4.624992745889494 x[10] + 3.508459510527757 x[11]
   + 3.263306794281367 x[12] + 1.080053568579439 x[13]
   + 4.273680792520876 x[14] + 1.181230607545276 x[15]
   + 2.964158404610957 x[16] + 2.000040012826481 x[17]
   + 1.919355440146985 x[18] + 2.094319264971542 x[19]
   + 4.549741854314811 x[20] + 2.231314654339914 x[21]
   + 2.166882924842929 x[22] + 2.595704898706078 x[23]
   + 2.655144330793997 x[24] + 0.1677639390853649 x[25]
   + 2.43009420789579 x[26] + 1.131615144508683 x[27]
   + 1.120146593666787 x[28] + 4.499564038169579 x[29]
   + 2.050711205672731 x[30] + 1.434845300041345 x[31]
   + 4.553497155073541 x[32] + 2.613054162745481 x[33]
   + 3.248571186320861 x[34] + 2.597670758929612 x[35]
   + 1.807519384107714 x[36] + 1.921763763323589 x[37]
   + 0.546426489591929 x[38] + 4.582664710920699 x[39]
   + 4.351203385838344 x[40] + 1.762518072934091 x[41]
   + 0.1012717113270811 x[42] + 2.784711709816044 x[43]
   + 4.309687271316323 x[44] + 1.667372270963206 x[45]
   + 2.20335204180067 x[46] + 3.87400291843283 x[47]
   + 0.5163734681889687 x[48] + 2.969769442670539 x[49]
   + 2.927849285447404 x[50] + 2.378102521014511 x[51]
   + 2.043015475664674 x[52] + 0.9697253540771411 x[53]
   + 0.9345673559851596 x[54] + 0.0203779366621827 x[55]
   + 1.449060321614409 x[56] + 3.125625374033224 x[57]
   + 0.0667876817453267 x[58] + 2.290852643350473 x[59]
   + 4.352849339877998 x[60] + 0.2059191014631866 x[61]
   + 0.5860861712143903 x[62] + 1.00194495464907 x[63]
   + 1.713855058693836 x[64] + 2.431011701666531 x[65]
   + 0.360744320874859 x[66] + 0.152959404374366 x[67]
   + 4.472317399831856 x[68] + 0.9486867100499188 x[69]
   + 3.905225526292169 x[70] + 0.0442626103199389 x[71]
   + 2.585683111070462 x[72] + 3.258026620474187 x[73]
   + 4.125969876772238 x[74] + 2.012821263648544 x[75]
   + 4.535910060554987 x[76] + 1.467071539876645 x[77]
   + 3.447604026045453 x[78] + 2.502889952311448 x[79]
   + 3.544861564084969 x[80] + 2.330844562304036 x[81]
   + 3.150205076374306 x[82] + 1.346633949561845 x[83]
   + 1.066410888158878 x[84] + 0.0415869340991367 x[85]
   + 2.839911185608949 x[86] + 2.449422468120561 x[87]
   + 4.197710215019442 x[88] + 2.415788359902604 x[89]
   + 0.3061085072174722 x[90] + 4.590525439838538 x[91]
   + 1.505220835501555 x[92] + 4.238283300340559 x[93]
   + 3.177730777050392 x[94] + 2.597609385261755 x[95]
   + 0.9735516333697839 x[96] + 3.097552859430114 x[97]
   + 4.263266371531289 x[98] + 2.986120181695525 x[99]
   + 0.268749183141375 x[100] + 3.175846462152838 x[101]
   + 3.444702751836162 x[102] + 3.93129748856813 x[103]
   + 0.6162220975375979 x[104] + 3.2816874929638 x[105]
   + 3.205579237303732 x[106] + 4.058675723245844 x[107]
   + 1.548766168785163 x[108] + 1.155192783777282 x[109]
   + 2.242767259978887 x[110] + 4.469267501886021 x[111]
   + 2.392641401143191 x[112] + 0.4495423042080999 x[113]
   + 4.486484272022987 x[114] + 0.8826932386862145 x[115]
   + 3.731940938253095 x[116] + 1.0546210683541 x[117]
   + 2.797938104551539 x[118] + 3.92716594138051 x[119] + 7 u[0] + 67 u[1]
   + 33 u[2] + 26 u[3] + 87 u[4] + 45 u[5] + 28 u[6] + 95 u[7] + 64 u[8]
   + 17 u[9] + 75 u[10] + 82 u[11] + 83 u[12] + 47 u[13] + 56 u[14]
   + 84 u[15] + 24 u[16] + 35 u[17] + 52 u[18] + 25 u[19] + 64 u[20]
   + 11 u[21] + 99 u[22] + 14 u[23] + 80 u[24] + 39 u[25] + 45 u[26]
   + 75 u[27] + 25 u[28] + 50 u[29] + 21 u[30] + 47 u[31] + 95 u[32]
   + 60 u[33] + 71 u[34] + 8 u[35] + 75 u[36] + 40 u[37] + 55 u[38]
   + 34 u[39] + 86 u[40] + 69 u[41] + 57 u[42] + 89 u[43] + 26 u[44]
   + 46 u[45] + 45 u[46] + 45 u[47] + 18 u[48] + 47 u[49] + 62 u[50]
   + 27 u[51] + 4 u[52] + 71 u[53] + 100 u[54] + 87 u[55] + 88 u[56]
   + 98 u[57] + 51 u[58] + 13 u[59] + 32 u[60] + 42 u[61] + 67 u[62]
   + 6 u[63] + 27 u[64] + 7 u[65] + 92 u[66] + 74 u[67] + 95 u[68]
   + 89 u[69] + 21 u[70] + 21 u[71] + 85 u[72] + 30 u[73] + 3 u[74]
   + 32 u[75] + 34 u[76] + 78 u[77] + 24 u[78] + 22 u[79] + 65 u[80]
   + 77 u[81] + 74 u[82] + 29 u[83] + 49 u[84] + 25 u[85] + 31 u[86]
   + 79 u[87] + 29 u[88] + 46 u[89] + 44 u[90] + 20 u[91] + 52 u[92]
   + 11 u[93] + 3 u[94] + 80 u[95] + 84 u[96] + 72 u[97] + 43 u[98]
   + 91 u[99] + 12 u[100] + 83 u[101] + 13 u[102] + 83 u[103] + 4 u[104]
   + 89 u[105] + 38 u[106] + 70 u[107] + 10 u[108] + 84 u[109] + 46 u[110]
   + 78 u[111] + 24 u[112] + 40 u[113] + 84 u[114] + 66 u[115] + 58 u[116]
   + 8 u[117] + 100 u[118] + 44 u[119] <= 23824
 mccormick1[0]: - u[0] + r[0] <= 0
 mccormick1[1]: - u[1] + r[1] <= 0
 mccormick1[2]: - u[2] + r[2] <= 0
 mccormick1[3]: - u[3] + r[3] <= 0
 mccormick1[4]: - u[4] + r[4] <= 0
 mccormick1[5]: - u[5] + r[5] <= 0
 mccormick1[6]: - u[6] + r[6] <= 0
 mccormick1[7]: - u[7] + r[7] <= 0
 mccormick1[8]: - u[8] + r[8] <= 0
 mccormick1[9]: - u[9] + r[9] <= 0
 mccormick1[10]: - u[10] + r[10] <= 0
 mccormick1[11]: - u[11] + r[11] <= 0
 mccormick1[12]: - u[12] + r[12] <= 0
 mccormick1[13]: - u[13] + r[13] <= 0
 mccormick1[14]: - u[14] + r[14] <= 0
 mccormick1[15]: - u[15] + r[15] <= 0
 mccormick1[16]: - u[16] + r[16] <= 0
 mccormick1[17]: - u[17] + r[17] <= 0
 mccormick1[18]: - u[18] + r[18] <= 0
 mccormick1[19]: - u[19] + r[19] <= 0
 mccormick1[20]: - u[20] + r[20] <= 0
 mccormick1[21]: - u[21] + r[21] <= 0
 mccormick1[22]: - u[22] + r[22] <= 0
 mccormick1[23]: - u[23] + r[23] <= 0
 mccormick1[24]: - u[24] + r[24] <= 0
 mccormick1[25]: - u[25] + r[25] <= 0
 mccormick1[26]: - u[26] + r[26] <= 0
 mccormick1[27]: - u[27] + r[27] <= 0
 mccormick1[28]: - u[28] + r[28] <= 0
 mccormick1[29]: - u[29] + r[29] <= 0
 mccormick1[30]: - u[30] + r[30] <= 0
 mccormick1[31]: - u[31] + r[31] <= 0
 mccormick1[32]: - u[32] + r[32] <= 0
 mccormick1[33]: - u[33] + r[33] <= 0
 mccormick1[34]: - u[34] + r[34] <= 0
 mccormick1[35]: - u[35] + r[35] <= 0
 mccormick1[36]: - u[36] + r[36] <= 0
 mccormick1[37]: - u[37] + r[37] <= 0
 mccormick1[38]: - u[38] + r[38] <= 0
 mccormick1[39]: - u[39] + r[39] <= 0
 mccormick1[40]: - u[40] + r[40] <= 0
 mccormick1[41]: - u[41] + r[41] <= 0
 mccormick1[42]: - u[42] + r[42] <= 0
 mccormick1[43]: - u[43] + r[43] <= 0
 mccormick1[44]: - u[44] + r[44] <= 0
 mccormick1[45]: - u[45] + r[45] <= 0
 mccormick1[46]: - u[46] + r[46] <= 0
 mccormick1[47]: - u[47] + r[47] <= 0
 mccormick1[48]: - u[48] + r[48] <= 0
 mccormick1[49]: - u[49] + r[49] <= 0
 mccormick1[50]: - u[50] + r[50] <= 0
 mccormick1[51]: - u[51] + r[51] <= 0
 mccormick1[52]: - u[52] + r[52] <= 0
 mccormick1[53]: - u[53] + r[53] <= 0
 mccormick1[54]: - u[54] + r[54] <= 0
 mccormick1[55]: - u[55] + r[55] <= 0
 mccormick1[56]: - u[56] + r[56] <= 0
 mccormick1[57]: - u[57] + r[57] <= 0
 mccormick1[58]: - u[58] + r[58] <= 0
 mccormick1[59]: - u[59] + r[59] <= 0
 mccormick1[60]: - u[60] + r[60] <= 0
 mccormick1[61]: - u[61] + r[61] <= 0
 mccormick1[62]: - u[62] + r[62] <= 0
 mccormick1[63]: - u[63] + r[63] <= 0
 mccormick1[64]: - u[64] + r[64] <= 0
 mccormick1[65]: - u[65] + r[65] <= 0
 mccormick1[66]: - u[66] + r[66] <= 0
 mccormick1[67]: - u[67] + r[67] <= 0
 mccormick1[68]: - u[68] + r[68] <= 0
 mccormick1[69]: - u[69] + r[69] <= 0
 mccormick1[70]: - u[70] + r[70] <= 0
 mccormick1[71]: - u[71] + r[71] <= 0
 mccormick1[72]: - u[72] + r[72] <= 0
 mccormick1[73]: - u[73] + r[73] <= 0
 mccormick1[74]: - u[74] + r[74] <= 0
 mccormick1[75]: - u[75] + r[75] <= 0
 mccormick1[76]: - u[76] + r[76] <= 0
 mccormick1[77]: - u[77] + r[77] <= 0
 mccormick1[78]: - u[78] + r[78] <= 0
 mccormick1[79]: - u[79] + r[79] <= 0
 mccormick1[80]: - u[80] + r[80] <= 0
 mccormick1[81]: - u[81] + r[81] <= 0
 mccormick1[82]: - u[82] + r[82] <= 0
 mccormick1[83]: - u[83] + r[83] <= 0
 mccormick1[84]: - u[84] + r[84] <= 0
 mccormick1[85]: - u[85] + r[85] <= 0
 mccormick1[86]: - u[86] + r[86] <= 0
 mccormick1[87]: - u[87] + r[87] <= 0
 mccormick1[88]: - u[88] + r[88] <= 0
 mccormick1[89]: - u[89] + r[89] <= 0
 mccormick1[90]: - u[90] + r[90] <= 0
 mccormick1[91]: - u[91] + r[91] <= 0
 mccormick1[92]: - u[92] + r[92] <= 0
 mccormick1[93]: - u[93] + r[93] <= 0
 mccormick1[94]: - u[94] + r[94] <= 0
 mccormick1[95]: - u[95] + r[95] <= 0
 mccormick1[96]: - u[96] + r[96] <= 0
 mccormick1[97]: - u[97] + r[97] <= 0
 mccormick1[98]: - u[98] + r[98] <= 0
 mccormick1[99]: - u[99] + r[99] <= 0
 mccormick1[100]: - u[100] + r[100] <= 0
 mccormick1[101]: - u[101] + r[101] <= 0
 mccormick1[102]: - u[102] + r[102] <= 0
 mccormick1[103]: - u[103] + r[103] <= 0
 mccormick1[104]: - u[104] + r[104] <= 0
 mccormick1[105]: - u[105] + r[105] <= 0
 mccormick1[106]: - u[106] + r[106] <= 0
 mccormick1[107]: - u[107] + r[107] <= 0
 mccormick1[108]: - u[108] + r[108] <= 0
 mccormick1[109]: - u[109] + r[109] <= 0
 mccormick1[110]: - u[110] + r[110] <= 0
 mccormick1[111]: - u[111] + r[111] <= 0
 mccormick1[112]: - u[112] + r[112] <= 0
 mccormick1[113]: - u[113] + r[113] <= 0
 mccormick1[114]: - u[114] + r[114] <= 0
 mccormick1[115]: - u[115] + r[115] <= 0
 mccormick1[116]: - u[116] + r[116] <= 0
 mccormick1[117]: - u[117] + r[117] <= 0
 mccormick1[118]: - u[118] + r[118] <= 0
 mccormick1[119]: - u[119] + r[119] <= 0
 mccormick2[0]: - x[0] + r[0] <= 0
 mccormick2[1]: - x[1] + r[1] <= 0
 mccormick2[2]: - x[2] + r[2] <= 0
 mccormick2[3]: - x[3] + r[3] <= 0
 mccormick2[4]: - x[4] + r[4] <= 0
 mccormick2[5]: - x[5] + r[5] <= 0
 mccormick2[6]: - x[6] + r[6] <= 0
 mccormick2[7]: - x[7] + r[7] <= 0
 mccormick2[8]: - x[8] + r[8] <= 0
 mccormick2[9]: - x[9] + r[9] <= 0
 mccormick2[10]: - x[10] + r[10] <= 0
 mccormick2[11]: - x[11] + r[11] <= 0
 mccormick2[12]: - x[12] + r[12] <= 0
 mccormick2[13]: - x[13] + r[13] <= 0
 mccormick2[14]: - x[14] + r[14] <= 0
 mccormick2[15]: - x[15] + r[15] <= 0
 mccormick2[16]: - x[16] + r[16] <= 0
 mccormick2[17]: - x[17] + r[17] <= 0
 mccormick2[18]: - x[18] + r[18] <= 0
 mccormick2[19]: - x[19] + r[19] <= 0
 mccormick2[20]: - x[20] + r[20] <= 0
 mccormick2[21]: - x[21] + r[21] <= 0
 mccormick2[22]: - x[22] + r[22] <= 0
 mccormick2[23]: - x[23] + r[23] <= 0
 mccormick2[24]: - x[24] + r[24] <= 0
 mccormick2[25]: - x[25] + r[25] <= 0
 mccormick2[26]: - x[26] + r[26] <= 0
 mccormick2[27]: - x[27] + r[27] <= 0
 mccormick2[28]: - x[28] + r[28] <= 0
 mccormick2[29]: - x[29] + r[29] <= 0
 mccormick2[30]: - x[30] + r[30] <= 0
 mccormick2[31]: - x[31] + r[31] <= 0
 mccormick2[32]: - x[32] + r[32] <= 0
 mccormick2[33]: - x[33] + r[33] <= 0
 mccormick2[34]: - x[34] + r[34] <= 0
 mccormick2[35]: - x[35] + r[35] <= 0
 mccormick2[36]: - x[36] + r[36] <= 0
 mccormick2[37]: - x[37] + r[37] <= 0
 mccormick2[38]: - x[38] + r[38] <= 0
 mccormick2[39]: - x[39] + r[39] <= 0
 mccormick2[40]: - x[40] + r[40] <= 0
 mccormick2[41]: - x[41] + r[41] <= 0
 mccormick2[42]: - x[42] + r[42] <= 0
 mccormick2[43]: - x[43] + r[43] <= 0
 mccormick2[44]: - x[44] + r[44] <= 0
 mccormick2[45]: - x[45] + r[45] <= 0
 mccormick2[46]: - x[46] + r[46] <= 0
 mccormick2[47]: - x[47] + r[47] <= 0
 mccormick2[48]: - x[48] + r[48] <= 0
 mccormick2[49]: - x[49] + r[49] <= 0
 mccormick2[50]: - x[50] + r[50] <= 0
 mccormick2[51]: - x[51] + r[51] <= 0
 mccormick2[52]: - x[52] + r[52] <= 0
 mccormick2[53]: - x[53] + r[53] <= 0
 mccormick2[54]: - x[54] + r[54] <= 0
 mccormick2[55]: - x[55] + r[55] <= 0
 mccormick2[56]: - x[56] + r[56] <= 0
 mccormick2[57]: - x[57] + r[57] <= 0
 mccormick2[58]: - x[58] + r[58] <= 0
 mccormick2[59]: - x[59] + r[59] <= 0
 mccormick2[60]: - x[60] + r[60] <= 0
 mccormick2[61]: - x[61] + r[61] <= 0
 mccormick2[62]: - x[62] + r[62] <= 0
 mccormick2[63]: - x[63] + r[63] <= 0
 mccormick2[64]: - x[64] + r[64] <= 0
 mccormick2[65]: - x[65] + r[65] <= 0
 mccormick2[66]: - x[66] + r[66] <= 0
 mccormick2[67]: - x[67] + r[67] <= 0
 mccormick2[68]: - x[68] + r[68] <= 0
 mccormick2[69]: - x[69] + r[69] <= 0
 mccormick2[70]: - x[70] + r[70] <= 0
 mccormick2[71]: - x[71] + r[71] <= 0
 mccormick2[72]: - x[72] + r[72] <= 0
 mccormick2[73]: - x[73] + r[73] <= 0
 mccormick2[74]: - x[74] + r[74] <= 0
 mccormick2[75]: - x[75] + r[75] <= 0
 mccormick2[76]: - x[76] + r[76] <= 0
 mccormick2[77]: - x[77] + r[77] <= 0
 mccormick2[78]: - x[78] + r[78] <= 0
 mccormick2[79]: - x[79] + r[79] <= 0
 mccormick2[80]: - x[80] + r[80] <= 0
 mccormick2[81]: - x[81] + r[81] <= 0
 mccormick2[82]: - x[82] + r[82] <= 0
 mccormick2[83]: - x[83] + r[83] <= 0
 mccormick2[84]: - x[84] + r[84] <= 0
 mccormick2[85]: - x[85] + r[85] <= 0
 mccormick2[86]: - x[86] + r[86] <= 0
 mccormick2[87]: - x[87] + r[87] <= 0
 mccormick2[88]: - x[88] + r[88] <= 0
 mccormick2[89]: - x[89] + r[89] <= 0
 mccormick2[90]: - x[90] + r[90] <= 0
 mccormick2[91]: - x[91] + r[91] <= 0
 mccormick2[92]: - x[92] + r[92] <= 0
 mccormick2[93]: - x[93] + r[93] <= 0
 mccormick2[94]: - x[94] + r[94] <= 0
 mccormick2[95]: - x[95] + r[95] <= 0
 mccormick2[96]: - x[96] + r[96] <= 0
 mccormick2[97]: - x[97] + r[97] <= 0
 mccormick2[98]: - x[98] + r[98] <= 0
 mccormick2[99]: - x[99] + r[99] <= 0
 mccormick2[100]: - x[100] + r[100] <= 0
 mccormick2[101]: - x[101] + r[101] <= 0
 mccormick2[102]: - x[102] + r[102] <= 0
 mccormick2[103]: - x[103] + r[103] <= 0
 mccormick2[104]: - x[104] + r[104] <= 0
 mccormick2[105]: - x[105] + r[105] <= 0
 mccormick2[106]: - x[106] + r[106] <= 0
 mccormick2[107]: - x[107] + r[107] <= 0
 mccormick2[108]: - x[108] + r[108] <= 0
 mccormick2[109]: - x[109] + r[109] <= 0
 mccormick2[110]: - x[110] + r[110] <= 0
 mccormick2[111]: - x[111] + r[111] <= 0
 mccormick2[112]: - x[112] + r[112] <= 0
 mccormick2[113]: - x[113] + r[113] <= 0
 mccormick2[114]: - x[114] + r[114] <= 0
 mccormick2[115]: - x[115] + r[115] <= 0
 mccormick2[116]: - x[116] + r[116] <= 0
 mccormick2[117]: - x[117] + r[117] <= 0
 mccormick2[118]: - x[118] + r[118] <= 0
 mccormick2[119]: - x[119] + r[119] <= 0
 mccormick3[0]: x[0] + u[0] - r[0] <= 1
 mccormick3[1]: x[1] + u[1] - r[1] <= 1
 mccormick3[2]: x[2] + u[2] - r[2] <= 1
 mccormick3[3]: x[3] + u[3] - r[3] <= 1
 mccormick3[4]: x[4] + u[4] - r[4] <= 1
 mccormick3[5]: x[5] + u[5] - r[5] <= 1
 mccormick3[6]: x[6] + u[6] - r[6] <= 1
 mccormick3[7]: x[7] + u[7] - r[7] <= 1
 mccormick3[8]: x[8] + u[8] - r[8] <= 1
 mccormick3[9]: x[9] + u[9] - r[9] <= 1
 mccormick3[10]: x[10] + u[10] - r[10] <= 1
 mccormick3[11]: x[11] + u[11] - r[11] <= 1
 mccormick3[12]: x[12] + u[12] - r[12] <= 1
 mccormick3[13]: x[13] + u[13] - r[13] <= 1
 mccormick3[14]: x[14] + u[14] - r[14] <= 1
 mccormick3[15]: x[15] + u[15] - r[15] <= 1
 mccormick3[16]: x[16] + u[16] - r[16] <= 1
 mccormick3[17]: x[17] + u[17] - r[17] <= 1
 mccormick3[18]: x[18] + u[18] - r[18] <= 1
 mccormick3[19]: x[19] + u[19] - r[19] <= 1
 mccormick3[20]: x[20] + u[20] - r[20] <= 1
 mccormick3[21]: x[21] + u[21] - r[21] <= 1
 mccormick3[22]: x[22] + u[22] - r[22] <= 1
 mccormick3[23]: x[23] + u[23] - r[23] <= 1
 mccormick3[24]: x[24] + u[24] - r[24] <= 1
 mccormick3[25]: x[25] + u[25] - r[25] <= 1
 mccormick3[26]: x[26] + u[26] - r[26] <= 1
 mccormick3[27]: x[27] + u[27] - r[27] <= 1
 mccormick3[28]: x[28] + u[28] - r[28] <= 1
 mccormick3[29]: x[29] + u[29] - r[29] <= 1
 mccormick3[30]: x[30] + u[30] - r[30] <= 1
 mccormick3[31]: x[31] + u[31] - r[31] <= 1
 mccormick3[32]: x[32] + u[32] - r[32] <= 1
 mccormick3[33]: x[33] + u[33] - r[33] <= 1
 mccormick3[34]: x[34] + u[34] - r[34] <= 1
 mccormick3[35]: x[35] + u[35] - r[35] <= 1
 mccormick3[36]: x[36] + u[36] - r[36] <= 1
 mccormick3[37]: x[37] + u[37] - r[37] <= 1
 mccormick3[38]: x[38] + u[38] - r[38] <= 1
 mccormick3[39]: x[39] + u[39] - r[39] <= 1
 mccormick3[40]: x[40] + u[40] - r[40] <= 1
 mccormick3[41]: x[41] + u[41] - r[41] <= 1
 mccormick3[42]: x[42] + u[42] - r[42] <= 1
 mccormick3[43]: x[43] + u[43] - r[43] <= 1
 mccormick3[44]: x[44] + u[44] - r[44] <= 1
 mccormick3[45]: x[45] + u[45] - r[45] <= 1
 mccormick3[46]: x[46] + u[46] - r[46] <= 1
 mccormick3[47]: x[47] + u[47] - r[47] <= 1
 mccormick3[48]: x[48] + u[48] - r[48] <= 1
 mccormick3[49]: x[49] + u[49] - r[49] <= 1
 mccormick3[50]: x[50] + u[50] - r[50] <= 1
 mccormick3[51]: x[51] + u[51] - r[51] <= 1
 mccormick3[52]: x[52] + u[52] - r[52] <= 1
 mccormick3[53]: x[53] + u[53] - r[53] <= 1
 mccormick3[54]: x[54] + u[54] - r[54] <= 1
 mccormick3[55]: x[55] + u[55] - r[55] <= 1
 mccormick3[56]: x[56] + u[56] - r[56] <= 1
 mccormick3[57]: x[57] + u[57] - r[57] <= 1
 mccormick3[58]: x[58] + u[58] - r[58] <= 1
 mccormick3[59]: x[59] + u[59] - r[59] <= 1
 mccormick3[60]: x[60] + u[60] - r[60] <= 1
 mccormick3[61]: x[61] + u[61] - r[61] <= 1
 mccormick3[62]: x[62] + u[62] - r[62] <= 1
 mccormick3[63]: x[63] + u[63] - r[63] <= 1
 mccormick3[64]: x[64] + u[64] - r[64] <= 1
 mccormick3[65]: x[65] + u[65] - r[65] <= 1
 mccormick3[66]: x[66] + u[66] - r[66] <= 1
 mccormick3[67]: x[67] + u[67] - r[67] <= 1
 mccormick3[68]: x[68] + u[68] - r[68] <= 1
 mccormick3[69]: x[69] + u[69] - r[69] <= 1
 mccormick3[70]: x[70] + u[70] - r[70] <= 1
 mccormick3[71]: x[71] + u[71] - r[71] <= 1
 mccormick3[72]: x[72] + u[72] - r[72] <= 1
 mccormick3[73]: x[73] + u[73] - r[73] <= 1
 mccormick3[74]: x[74] + u[74] - r[74] <= 1
 mccormick3[75]: x[75] + u[75] - r[75] <= 1
 mccormick3[76]: x[76] + u[76] - r[76] <= 1
 mccormick3[77]: x[77] + u[77] - r[77] <= 1
 mccormick3[78]: x[78] + u[78] - r[78] <= 1
 mccormick3[79]: x[79] + u[79] - r[79] <= 1
 mccormick3[80]: x[80] + u[80] - r[80] <= 1
 mccormick3[81]: x[81] + u[81] - r[81] <= 1
 mccormick3[82]: x[82] + u[82] - r[82] <= 1
 mccormick3[83]: x[83] + u[83] - r[83] <= 1
 mccormick3[84]: x[84] + u[84] - r[84] <= 1
 mccormick3[85]: x[85] + u[85] - r[85] <= 1
 mccormick3[86]: x[86] + u[86] - r[86] <= 1
 mccormick3[87]: x[87] + u[87] - r[87] <= 1
 mccormick3[88]: x[88] + u[88] - r[88] <= 1
 mccormick3[89]: x[89] + u[89] - r[89] <= 1
 mccormick3[90]: x[90] + u[90] - r[90] <= 1
 mccormick3[91]: x[91] + u[91] - r[91] <= 1
 mccormick3[92]: x[92] + u[92] - r[92] <= 1
 mccormick3[93]: x[93] + u[93] - r[93] <= 1
 mccormick3[94]: x[94] + u[94] - r[94] <= 1
 mccormick3[95]: x[95] + u[95] - r[95] <= 1
 mccormick3[96]: x[96] + u[96] - r[96] <= 1
 mccormick3[97]: x[97] + u[97] - r[97] <= 1
 mccormick3[98]: x[98] + u[98] - r[98] <= 1
 mccormick3[99]: x[99] + u[99] - r[99] <= 1
 mccormick3[100]: x[100] + u[100] - r[100] <= 1
 mccormick3[101]: x[101] + u[101] - r[101] <= 1
 mccormick3[102]: x[102] + u[102] - r[102] <= 1
 mccormick3[103]: x[103] + u[103] - r[103] <= 1
 mccormick3[104]: x[104] + u[104] - r[104] <= 1
 mccormick3[105]: x[105] + u[105] - r[105] <= 1
 mccormick3[106]: x[106] + u[106] - r[106] <= 1
 mccormick3[107]: x[107] + u[107] - r[107] <= 1
 mccormick3[108]: x[108] + u[108] - r[108] <= 1
 mccormick3[109]: x[109] + u[109] - r[109] <= 1
 mccormick3[110]: x[110] + u[110] - r[110] <= 1
 mccormick3[111]: x[111] + u[111] - r[111] <= 1
 mccormick3[112]: x[112] + u[112] - r[112] <= 1
 mccormick3[113]: x[113] + u[113] - r[113] <= 1
 mccormick3[114]: x[114] + u[114] - r[114] <= 1
 mccormick3[115]: x[115] + u[115] - r[115] <= 1
 mccormick3[116]: x[116] + u[116] - r[116] <= 1
 mccormick3[117]: x[117] + u[117] - r[117] <= 1
 mccormick3[118]: x[118] + u[118] - r[118] <= 1
 mccormick3[119]: x[119] + u[119] - r[119] <= 1
Bounds
Binaries
 x[0] x[1] x[2] x[3] x[4] x[5] x[6] x[7] x[8] x[9] x[10] x[11] x[12] x[13]
 x[14] x[15] x[16] x[17] x[18] x[19] x[20] x[21] x[22] x[23] x[24] x[25]
 x[26] x[27] x[28] x[29] x[30] x[31] x[32] x[33] x[34] x[35] x[36] x[37]
 x[38] x[39] x[40] x[41] x[42] x[43] x[44] x[45] x[46] x[47] x[48] x[49]
 x[50] x[51] x[52] x[53] x[54] x[55] x[56] x[57] x[58] x[59] x[60] x[61]
 x[62] x[63] x[64] x[65] x[66] x[67] x[68] x[69] x[70] x[71] x[72] x[73]
 x[74] x[75] x[76] x[77] x[78] x[79] x[80] x[81] x[82] x[83] x[84] x[85]
 x[86] x[87] x[88] x[89] x[90] x[91] x[92] x[93] x[94] x[95] x[96] x[97]
 x[98] x[99] x[100] x[101] x[102] x[103] x[104] x[105] x[106] x[107] x[108]
 x[109] x[110] x[111] x[112] x[113] x[114] x[115] x[116] x[117] x[118]
 x[119] u[0] u[1] u[2] u[3] u[4] u[5] u[6] u[7] u[8] u[9] u[10] u[11] u[12]
 u[13] u[14] u[15] u[16] u[17] u[18] u[19] u[20] u[21] u[22] u[23] u[24]
 u[25] u[26] u[27] u[28] u[29] u[30] u[31] u[32] u[33] u[34] u[35] u[36]
 u[37] u[38] u[39] u[40] u[41] u[42] u[43] u[44] u[45] u[46] u[47] u[48]
 u[49] u[50] u[51] u[52] u[53] u[54] u[55] u[56] u[57] u[58] u[59] u[60]
 u[61] u[62] u[63] u[64] u[65] u[66] u[67] u[68] u[69] u[70] u[71] u[72]
 u[73] u[74] u[75] u[76] u[77] u[78] u[79] u[80] u[81] u[82] u[83] u[84]
 u[85] u[86] u[87] u[88] u[89] u[90] u[91] u[92] u[93] u[94] u[95] u[96]
 u[97] u[98] u[99] u[100] u[101] u[102] u[103] u[104] u[105] u[106] u[107]
 u[108] u[109] u[110] u[111] u[112] u[113] u[114] u[115] u[116] u[117]
 u[118] u[119] r[0] r[1] r[2] r[3] r[4] r[5] r[6] r[7] r[8] r[9] r[10]
 r[11] r[12] r[13] r[14] r[15] r[16] r[17] r[18] r[19] r[20] r[21] r[22]
 r[23] r[24] r[25] r[26] r[27] r[28] r[29] r[30] r[31] r[32] r[33] r[34]
 r[35] r[36] r[37] r[38] r[39] r[40] r[41] r[42] r[43] r[44] r[45] r[46]
 r[47] r[48] r[49] r[50] r[51] r[52] r[53] r[54] r[55] r[56] r[57] r[58]
 r[59] r[60] r[61] r[62] r[63] r[64] r[65] r[66] r[67] r[68] r[69] r[70]
 r[71] r[72] r[73] r[74] r[75] r[76] r[77] r[78] r[79] r[80] r[81] r[82]
 r[83] r[84] r[85] r[86] r[87] r[88] r[89] r[90] r[91] r[92] r[93] r[94]
 r[95] r[96] r[97] r[98] r[99] r[100] r[101] r[102] r[103] r[104] r[105]
 r[106] r[107] r[108] r[109] r[110] r[111] r[112] r[113] r[114] r[115]
 r[116] r[117] r[118] r[119]
End
